NumGames = 12;
NumReferees = 24;
NumFields = 4;
game_id = [3741, 3743, 3745, 3751, 3752, 3753, 3754, 3757, 3759, 3761, 3763, 3764];
game_start = [1110, 780, 600, 720, 840, 1140, 1230, 1110, 780, 600, 660, 840];
game_end = [1230, 900, 720, 840, 960, 1260, 1350, 1230, 900, 720, 780, 960];
difficulty = [3, 2, 2, 1, 1, 1, 1, 3, 2, 2, 1, 1];
game_field = [1, 2, 2, 3, 3, 3, 3, 1, 2, 2, 4, 4];
referee_id = [1206, 2414, 2777, 3256, 3260, 3262, 3263, 3276, 3524, 3526, 3539, 3544, 3614, 3640, 3734, 7484, 7485, 7486, 7494, 7503, 7550, 7565, 7567, 7581];
main_exp = [277, 54, 67, 45, 147, 105, 135, 7, 12, 57, 12, 0, 6, 1, 21, 1, 0, 14, 1, 18, 2, 14, 4, 7];
assist_exp = [151, 100, 50, 51, 99, 79, 101, 13, 61, 106, 97, 1, 44, 32, 3, 17, 29, 66, 12, 59, 15, 0, 25, 0];
available_slots = array3d(1..NumReferees, 1..3, 1..2,[
  600,1140, 0,0, 0,0,
  780,900, 0,0, 0,0,
  0,1440, 0,0, 0,0,
  0,780, 0,0, 0,0,
  0,1440, 0,0, 0,0,
  0,1440, 0,0, 0,0,
  0,1440, 0,0, 0,0,
  720,960, 0,0, 0,0,
  720,1440, 0,0, 0,0,
  0,1440, 0,0, 0,0,
  0,1440, 0,0, 0,0,
  600,720, 0,0, 0,0,
  660,1440, 0,0, 0,0,
  780,1230, 0,0, 0,0,
  750,930, 0,0, 0,0,
  0,1440, 0,0, 0,0,
  0,1080, 0,0, 0,0,
  600,900, 0,0, 0,0,
  0,840, 0,0, 0,0,
  0,1440, 0,0, 0,0,
  0,1440, 0,0, 0,0,
  0,1440, 0,0, 0,0,
  185,845, 0,0, 0,0,
  0,1440, 0,0, 0,0,
]);